c t pmc
c file mc2024_track3_153.cnf
p cnf 546 968
c p show 1 2 3 4 5 6 7 8 9 10 11 12 13 14 15 16 17 18 19 20 21 22 0
-1 23 0
-2 23 0
-1 -2 24 0
-3 23 0
-1 -3 24 0
-2 -3 24 0
-1 -2 -3 25 0
-4 26 0
-5 26 0
-4 -5 27 0
-6 26 0
-4 -6 27 0
-5 -6 27 0
-4 -5 -6 28 0
-7 29 0
-8 29 0
-7 -8 30 0
-9 29 0
-7 -9 30 0
-8 -9 30 0
-7 -8 -9 31 0
-10 32 0
-22 32 0
-10 -22 33 0
-12 32 0
-10 -12 33 0
-22 -12 33 0
-10 -22 -12 34 0
-13 35 0
-14 35 0
-13 -14 36 0
-15 35 0
-13 -15 36 0
-14 -15 36 0
-13 -14 -15 37 0
-16 38 0
-17 38 0
-16 -17 39 0
-18 38 0
-16 -18 39 0
-17 -18 39 0
-16 -17 -18 40 0
-19 41 0
-20 41 0
-19 -20 42 0
-21 41 0
-19 -21 42 0
-20 -21 42 0
-19 -20 -21 43 0
-38 44 0
-39 45 0
-40 46 0
-41 44 0
-42 45 0
-43 46 0
-38 -41 45 0
-38 -42 46 0
-38 -43 47 0
-39 -41 46 0
-39 -42 47 0
-40 -41 47 0
-35 48 0
-36 49 0
-37 50 0
-44 48 0
-45 49 0
-46 50 0
-47 51 0
-35 -44 49 0
-35 -45 50 0
-35 -46 51 0
-36 -44 50 0
-36 -45 51 0
-37 -44 51 0
-32 52 0
-33 53 0
-34 54 0
-48 52 0
-49 53 0
-50 54 0
-51 55 0
-32 -48 53 0
-32 -49 54 0
-32 -50 55 0
-33 -48 54 0
-33 -49 55 0
-34 -48 55 0
-29 56 0
-30 57 0
-31 58 0
-52 56 0
-53 57 0
-54 58 0
-55 59 0
-29 -52 57 0
-29 -53 58 0
-29 -54 59 0
-30 -52 58 0
-30 -53 59 0
-31 -52 59 0
-26 60 0
-27 61 0
-28 62 0
-56 60 0
-57 61 0
-58 62 0
-59 63 0
-26 -56 61 0
-26 -57 62 0
-26 -58 63 0
-27 -56 62 0
-27 -57 63 0
-28 -56 63 0
-23 64 0
-24 65 0
-25 66 0
-60 64 0
-61 65 0
-62 66 0
-63 67 0
-23 -60 65 0
-23 -61 66 0
-23 -62 67 0
-24 -60 66 0
-24 -61 67 0
-25 -60 67 0
-11 68 0
-64 68 0
-65 69 0
-66 70 0
-67 71 0
-11 -64 69 0
-11 -65 70 0
-11 -66 71 0
-71 0
-14 0
-13 0
-4 0
-12 0
-8 0
-9 0
-10 0
72 0
-6 -73 0
-20 -73 0
-6 -20 -74 0
74 -75 0
73 -2 -75 0
75 0
-16 0
76 0
-7 -77 0
-2 -77 0
77 -78 0
-22 -78 0
-2 -22 -79 0
79 -80 0
78 -4 -80 0
80 -81 0
-12 -81 0
81 -82 0
-21 -82 0
82 -83 0
-11 -83 0
78 -84 0
-4 -84 0
84 -85 0
-12 -85 0
80 -12 -86 0
86 -87 0
85 -21 -87 0
87 -11 -88 0
88 -89 0
83 -13 -89 0
89 -90 0
-15 -90 0
-7 -2 -91 0
91 -92 0
77 -22 -92 0
92 -93 0
-4 -93 0
93 -94 0
-12 -94 0
92 -4 -95 0
95 -12 -96 0
96 -97 0
94 -21 -97 0
97 -98 0
-11 -98 0
91 -22 -99 0
99 -4 -100 0
100 -101 0
93 -12 -101 0
101 -21 -102 0
102 -11 -103 0
103 -104 0
98 -13 -104 0
104 -15 -105 0
105 -106 0
90 -10 -106 0
-2 -107 0
-22 -107 0
99 -108 0
107 -4 -108 0
108 -109 0
-12 -109 0
100 -12 -110 0
110 -111 0
109 -21 -111 0
111 -11 -112 0
112 -13 -113 0
113 -15 -114 0
114 -10 -115 0
115 -116 0
106 -19 -116 0
116 -17 -117 0
117 -5 -118 0
118 -9 -119 0
119 -3 -120 0
120 0
-20 0
-12 0
-8 0
-6 0
121 0
-4 -122 0
-9 -122 0
122 -123 0
-2 -123 0
123 -124 0
-14 -124 0
124 -125 0
-13 -125 0
125 -126 0
-15 -126 0
-18 -127 0
-4 -127 0
-18 -4 -128 0
128 -129 0
127 -9 -129 0
129 -130 0
-2 -130 0
129 -2 -131 0
131 -132 0
130 -14 -132 0
132 -133 0
124 -13 -133 0
133 -134 0
125 -15 -134 0
134 -135 0
126 -19 -135 0
135 -136 0
-5 -136 0
136 -137 0
-3 -137 0
137 -138 0
-22 -138 0
138 -139 0
-10 -139 0
139 -140 0
-17 -140 0
127 -141 0
-9 -141 0
141 -142 0
-2 -142 0
142 -143 0
-14 -143 0
143 -144 0
-13 -144 0
144 -145 0
-15 -145 0
128 -9 -146 0
146 -147 0
129 -2 -147 0
147 -148 0
123 -14 -148 0
148 -149 0
143 -13 -149 0
149 -150 0
144 -15 -150 0
150 -151 0
145 -19 -151 0
151 -152 0
-5 -152 0
152 -153 0
-3 -153 0
153 -154 0
-22 -154 0
-4 -9 -155 0
155 -2 -156 0
156 -14 -157 0
157 -13 -158 0
158 -15 -159 0
159 -19 -160 0
160 -161 0
151 -5 -161 0
161 -162 0
-3 -162 0
130 -163 0
-14 -163 0
163 -164 0
-13 -164 0
156 -165 0
130 -14 -165 0
165 -166 0
163 -13 -166 0
166 -167 0
164 -15 -167 0
167 -168 0
126 -19 -168 0
146 -2 -169 0
169 -14 -170 0
170 -13 -171 0
171 -15 -172 0
172 -19 -173 0
173 -174 0
168 -5 -174 0
174 -3 -175 0
175 -176 0
162 -22 -176 0
176 -177 0
154 -10 -177 0
173 -5 -178 0
178 -3 -179 0
179 -22 -180 0
180 -181 0
176 -10 -181 0
181 -182 0
177 -17 -182 0
182 -183 0
140 -7 -183 0
183 0
-16 0
-13 0
-2 0
-11 0
-6 0
-5 0
184 0
-15 -185 0
-1 -185 0
185 -186 0
-22 -186 0
186 -187 0
-10 -187 0
187 -8 -188 0
188 -189 0
-18 -189 0
189 -190 0
-21 -190 0
190 -191 0
-4 -191 0
191 -192 0
-12 -192 0
192 -193 0
-14 -193 0
193 -194 0
-3 -194 0
-15 -1 -195 0
195 -196 0
185 -22 -196 0
196 -10 -197 0
197 -198 0
-8 -198 0
198 -199 0
-18 -199 0
199 -200 0
-21 -200 0
195 -22 -201 0
201 -202 0
186 -10 -202 0
202 -8 -203 0
203 -18 -204 0
204 -21 -205 0
205 -206 0
200 -4 -206 0
206 -207 0
-12 -207 0
207 -208 0
-14 -208 0
190 -4 -209 0
209 -210 0
-12 -210 0
210 -14 -211 0
211 -212 0
208 -3 -212 0
212 -213 0
194 -9 -213 0
213 0
-20 0
-16 0
-14 0
214 0
-5 -11 -215 0
215 -216 0
-18 -216 0
216 -1 -217 0
217 -218 0
-19 -218 0
218 -219 0
-9 -219 0
219 -220 0
-15 -220 0
220 -221 0
-10 -221 0
221 -222 0
-7 -222 0
-5 -223 0
-11 -223 0
223 -224 0
-18 -224 0
215 -18 -225 0
225 -226 0
224 -1 -226 0
226 -227 0
-19 -227 0
217 -19 -228 0
228 -229 0
227 -9 -229 0
229 -230 0
-15 -230 0
230 -231 0
-10 -231 0
216 -232 0
-1 -232 0
232 -233 0
-19 -233 0
233 -234 0
-9 -234 0
-12 -235 0
-5 -235 0
235 -236 0
-11 -236 0
236 -237 0
-18 -237 0
237 -238 0
-1 -238 0
217 -239 0
238 -19 -239 0
-11 -18 -240 0
240 -1 -241 0
241 -19 -242 0
242 -243 0
239 -9 -243 0
243 -244 0
234 -15 -244 0
225 -1 -245 0
245 -19 -246 0
246 -9 -247 0
247 -15 -248 0
248 -249 0
244 -10 -249 0
249 -250 0
231 -7 -250 0
250 -251 0
222 -3 -251 0
251 0
252 0
-1 -253 0
-3 -253 0
253 -254 0
-10 -254 0
254 -255 0
-14 -255 0
255 -256 0
-12 -256 0
256 -257 0
-18 -257 0
257 -258 0
-5 -258 0
258 -259 0
-21 -259 0
259 -260 0
-16 -260 0
260 -261 0
-6 -261 0
261 -262 0
-13 -262 0
-1 -3 -263 0
263 -264 0
253 -10 -264 0
264 -265 0
-14 -265 0
264 -14 -266 0
266 -267 0
265 -12 -267 0
267 -268 0
256 -18 -268 0
268 -269 0
257 -5 -269 0
269 -270 0
-21 -270 0
270 -271 0
-16 -271 0
271 -272 0
-6 -272 0
263 -273 0
-10 -273 0
273 -274 0
-14 -274 0
274 -275 0
-12 -275 0
275 -276 0
-18 -276 0
265 -277 0
-12 -277 0
263 -10 -278 0
278 -279 0
254 -14 -279 0
278 -14 -280 0
280 -281 0
279 -12 -281 0
281 -282 0
277 -18 -282 0
282 -283 0
276 -5 -283 0
283 -284 0
258 -21 -284 0
284 -285 0
-16 -285 0
279 -286 0
255 -12 -286 0
286 -287 0
-18 -287 0
287 -288 0
-5 -288 0
273 -14 -289 0
289 -290 0
274 -12 -290 0
253 -10 -291 0
291 -14 -292 0
292 -12 -293 0
293 -294 0
290 -18 -294 0
294 -295 0
287 -5 -295 0
295 -296 0
288 -21 -296 0
289 -12 -297 0
297 -298 0
286 -18 -298 0
266 -12 -299 0
299 -18 -300 0
300 -301 0
298 -5 -301 0
293 -18 -302 0
302 -5 -303 0
303 -304 0
301 -21 -304 0
304 -305 0
296 -16 -305 0
305 -306 0
285 -6 -306 0
306 -307 0
272 -13 -307 0
307 -308 0
262 -20 -308 0
290 -309 0
256 -18 -309 0
309 -310 0
-5 -310 0
291 -311 0
-14 -311 0
292 -312 0
311 -12 -312 0
280 -12 -313 0
313 -314 0
312 -18 -314 0
314 -315 0
268 -5 -315 0
315 -316 0
310 -21 -316 0
316 -317 0
259 -16 -317 0
317 -318 0
-6 -318 0
277 -319 0
-18 -319 0
319 -320 0
-5 -320 0
320 -321 0
-21 -321 0
312 -322 0
275 -18 -322 0
322 -323 0
257 -5 -323 0
281 -18 -324 0
324 -325 0
282 -5 -325 0
325 -326 0
323 -21 -326 0
326 -327 0
321 -16 -327 0
299 -328 0
286 -18 -328 0
328 -329 0
287 -5 -329 0
313 -18 -330 0
330 -331 0
294 -5 -331 0
331 -332 0
329 -21 -332 0
300 -5 -333 0
333 -21 -334 0
334 -335 0
332 -16 -335 0
335 -336 0
327 -6 -336 0
336 -337 0
318 -13 -337 0
276 -338 0
-5 -338 0
311 -339 0
-12 -339 0
281 -340 0
339 -18 -340 0
340 -341 0
319 -5 -341 0
341 -342 0
338 -21 -342 0
324 -343 0
322 -5 -343 0
324 -5 -344 0
344 -345 0
343 -21 -345 0
345 -346 0
342 -16 -346 0
302 -347 0
328 -5 -347 0
330 -5 -348 0
348 -349 0
347 -21 -349 0
349 -16 -350 0
350 -351 0
346 -6 -351 0
313 -352 0
267 -18 -352 0
330 -353 0
352 -5 -353 0
353 -21 -354 0
354 -16 -355 0
355 -6 -356 0
356 -357 0
351 -13 -357 0
357 -358 0
337 -20 -358 0
358 -359 0
308 -2 -359 0
359 -360 0
-4 -360 0
360 -361 0
-19 -361 0
361 -362 0
-15 -362 0
310 -363 0
-21 -363 0
363 -364 0
-16 -364 0
364 -365 0
-6 -365 0
323 -366 0
258 -21 -366 0
366 -367 0
-16 -367 0
339 -368 0
-18 -368 0
368 -369 0
-5 -369 0
329 -370 0
369 -21 -370 0
297 -18 -371 0
371 -372 0
340 -5 -372 0
333 -373 0
372 -21 -373 0
373 -374 0
370 -16 -374 0
374 -375 0
367 -6 -375 0
375 -376 0
365 -13 -376 0
376 -377 0
-20 -377 0
352 -378 0
309 -5 -378 0
378 -379 0
288 -21 -379 0
379 -380 0
259 -16 -380 0
380 -381 0
-6 -381 0
338 -382 0
-21 -382 0
343 -383 0
269 -21 -383 0
383 -384 0
382 -16 -384 0
298 -385 0
368 -5 -385 0
347 -386 0
385 -21 -386 0
371 -5 -387 0
387 -21 -388 0
388 -389 0
386 -16 -389 0
389 -390 0
384 -6 -390 0
390 -391 0
381 -13 -391 0
344 -392 0
315 -21 -392 0
392 -393 0
284 -16 -393 0
304 -16 -394 0
394 -395 0
393 -6 -395 0
348 -396 0
331 -21 -396 0
396 -16 -397 0
397 -6 -398 0
398 -399 0
395 -13 -399 0
399 -400 0
391 -20 -400 0
400 -401 0
377 -2 -401 0
401 -402 0
-4 -402 0
372 -403 0
283 -21 -403 0
344 -21 -404 0
404 -405 0
403 -16 -405 0
303 -21 -406 0
406 -16 -407 0
407 -408 0
405 -6 -408 0
348 -21 -409 0
409 -16 -410 0
410 -6 -411 0
411 -412 0
408 -13 -412 0
412 -20 -413 0
413 -414 0
358 -2 -414 0
414 -4 -415 0
415 -416 0
402 -19 -416 0
314 -5 -417 0
417 -418 0
378 -21 -418 0
409 -419 0
418 -16 -419 0
419 -6 -420 0
420 -13 -421 0
421 -20 -422 0
422 -2 -423 0
423 -4 -424 0
424 -19 -425 0
425 -426 0
416 -15 -426 0
426 -427 0
362 -7 -427 0
427 -428 0
-17 -428 0
428 -429 0
-11 -429 0
288 -430 0
-21 -430 0
430 -431 0
-16 -431 0
431 -432 0
-6 -432 0
432 -433 0
-13 -433 0
370 -434 0
-16 -434 0
434 -435 0
-6 -435 0
405 -436 0
380 -6 -436 0
436 -437 0
435 -13 -437 0
437 -438 0
433 -20 -438 0
438 -439 0
-2 -439 0
369 -440 0
-21 -440 0
403 -441 0
440 -16 -441 0
441 -442 0
260 -6 -442 0
386 -443 0
430 -16 -443 0
409 -444 0
392 -16 -444 0
444 -445 0
443 -6 -445 0
445 -446 0
442 -13 -446 0
417 -21 -447 0
447 -16 -448 0
448 -449 0
305 -6 -449 0
404 -16 -450 0
450 -6 -451 0
451 -452 0
449 -13 -452 0
452 -453 0
446 -20 -453 0
335 -6 -454 0
454 -13 -455 0
455 -20 -456 0
456 -457 0
453 -2 -457 0
457 -458 0
439 -4 -458 0
458 -459 0
-19 -459 0
459 -460 0
-15 -460 0
440 -461 0
-16 -461 0
461 -462 0
-6 -462 0
462 -463 0
-13 -463 0
385 -464 0
320 -21 -464 0
464 -465 0
-16 -465 0
465 -466 0
-6 -466 0
296 -467 0
-16 -467 0
447 -468 0
326 -16 -468 0
468 -469 0
467 -6 -469 0
469 -470 0
466 -13 -470 0
470 -471 0
463 -20 -471 0
471 -472 0
-2 -472 0
327 -473 0
-6 -473 0
301 -474 0
341 -21 -474 0
474 -475 0
430 -16 -475 0
419 -476 0
475 -6 -476 0
476 -477 0
473 -13 -477 0
355 -478 0
374 -6 -478 0
451 -479 0
478 -13 -479 0
479 -480 0
477 -20 -480 0
410 -481 0
389 -6 -481 0
481 -13 -482 0
482 -20 -483 0
483 -484 0
480 -2 -484 0
484 -485 0
472 -4 -485 0
456 -2 -486 0
486 -4 -487 0
487 -488 0
485 -19 -488 0
488 -15 -489 0
489 -490 0
460 -7 -490 0
349 -491 0
379 -16 -491 0
450 -492 0
491 -6 -492 0
388 -16 -493 0
493 -6 -494 0
494 -495 0
492 -13 -495 0
495 -20 -496 0
496 -2 -497 0
497 -4 -498 0
498 -19 -499 0
499 -15 -500 0
500 -7 -501 0
501 -502 0
490 -17 -502 0
502 -11 -503 0
503 -504 0
429 -9 -504 0
504 -22 -505 0
505 -8 -506 0
506 0
507 0
-17 -508 0
-6 -508 0
508 -16 -509 0
509 -510 0
-13 -510 0
510 -511 0
-22 -511 0
511 -512 0
-12 -512 0
512 -513 0
-14 -513 0
513 -514 0
-3 -514 0
-16 -13 -515 0
515 -22 -516 0
516 -12 -517 0
517 -14 -518 0
518 -3 -519 0
519 -520 0
514 -2 -520 0
520 0
-6 0
521 0
-4 -3 -522 0
522 -523 0
-17 -523 0
523 -9 -524 0
524 0
525 0
-17 -526 0
-2 -526 0
526 -527 0
-12 -527 0
-17 -2 -528 0
528 -12 -529 0
529 -530 0
527 -21 -530 0
-16 -17 -531 0
531 -2 -532 0
532 -12 -533 0
533 -21 -534 0
534 -535 0
530 -11 -535 0
535 0
-20 0
-12 0
-5 0
-11 0
-8 0
536 0
-14 -21 -537 0
537 -538 0
-3 -538 0
538 -539 0
-13 -539 0
539 -540 0
-16 -540 0
540 -541 0
-22 -541 0
541 -17 -542 0
542 -543 0
-6 -543 0
543 -544 0
-15 -544 0
544 -545 0
-7 -545 0
545 -18 -546 0
546 0
